c File: flat100_3_0.col
c
c SOURCE: Joseph Culberson (joe@cs.ualberta.ca)
c DESCRIPTION: Quasi-random coloring problem
c              generated with flatness = 0
c                             probability = 0.072
c                             known coloring = 3
c                             random seed = 1029
c              Creation Date:  Thu Jun  4 18:55:20 1998
c Maximum degree = 8 Minimum degree = 1
c p edge 100 239
c cnf created by edge2cnf
p cnf 300 1117
-1 -2 0
-1 -3 0
-2 -3 0
1 2 3 0
-4 -5 0
-4 -6 0
-5 -6 0
4 5 6 0
-7 -8 0
-7 -9 0
-8 -9 0
7 8 9 0
-10 -11 0
-10 -12 0
-11 -12 0
10 11 12 0
-13 -14 0
-13 -15 0
-14 -15 0
13 14 15 0
-16 -17 0
-16 -18 0
-17 -18 0
16 17 18 0
-19 -20 0
-19 -21 0
-20 -21 0
19 20 21 0
-22 -23 0
-22 -24 0
-23 -24 0
22 23 24 0
-25 -26 0
-25 -27 0
-26 -27 0
25 26 27 0
-28 -29 0
-28 -30 0
-29 -30 0
28 29 30 0
-31 -32 0
-31 -33 0
-32 -33 0
31 32 33 0
-34 -35 0
-34 -36 0
-35 -36 0
34 35 36 0
-37 -38 0
-37 -39 0
-38 -39 0
37 38 39 0
-40 -41 0
-40 -42 0
-41 -42 0
40 41 42 0
-43 -44 0
-43 -45 0
-44 -45 0
43 44 45 0
-46 -47 0
-46 -48 0
-47 -48 0
46 47 48 0
-49 -50 0
-49 -51 0
-50 -51 0
49 50 51 0
-52 -53 0
-52 -54 0
-53 -54 0
52 53 54 0
-55 -56 0
-55 -57 0
-56 -57 0
55 56 57 0
-58 -59 0
-58 -60 0
-59 -60 0
58 59 60 0
-61 -62 0
-61 -63 0
-62 -63 0
61 62 63 0
-64 -65 0
-64 -66 0
-65 -66 0
64 65 66 0
-67 -68 0
-67 -69 0
-68 -69 0
67 68 69 0
-70 -71 0
-70 -72 0
-71 -72 0
70 71 72 0
-73 -74 0
-73 -75 0
-74 -75 0
73 74 75 0
-76 -77 0
-76 -78 0
-77 -78 0
76 77 78 0
-79 -80 0
-79 -81 0
-80 -81 0
79 80 81 0
-82 -83 0
-82 -84 0
-83 -84 0
82 83 84 0
-85 -86 0
-85 -87 0
-86 -87 0
85 86 87 0
-88 -89 0
-88 -90 0
-89 -90 0
88 89 90 0
-91 -92 0
-91 -93 0
-92 -93 0
91 92 93 0
-94 -95 0
-94 -96 0
-95 -96 0
94 95 96 0
-97 -98 0
-97 -99 0
-98 -99 0
97 98 99 0
-100 -101 0
-100 -102 0
-101 -102 0
100 101 102 0
-103 -104 0
-103 -105 0
-104 -105 0
103 104 105 0
-106 -107 0
-106 -108 0
-107 -108 0
106 107 108 0
-109 -110 0
-109 -111 0
-110 -111 0
109 110 111 0
-112 -113 0
-112 -114 0
-113 -114 0
112 113 114 0
-115 -116 0
-115 -117 0
-116 -117 0
115 116 117 0
-118 -119 0
-118 -120 0
-119 -120 0
118 119 120 0
-121 -122 0
-121 -123 0
-122 -123 0
121 122 123 0
-124 -125 0
-124 -126 0
-125 -126 0
124 125 126 0
-127 -128 0
-127 -129 0
-128 -129 0
127 128 129 0
-130 -131 0
-130 -132 0
-131 -132 0
130 131 132 0
-133 -134 0
-133 -135 0
-134 -135 0
133 134 135 0
-136 -137 0
-136 -138 0
-137 -138 0
136 137 138 0
-139 -140 0
-139 -141 0
-140 -141 0
139 140 141 0
-142 -143 0
-142 -144 0
-143 -144 0
142 143 144 0
-145 -146 0
-145 -147 0
-146 -147 0
145 146 147 0
-148 -149 0
-148 -150 0
-149 -150 0
148 149 150 0
-151 -152 0
-151 -153 0
-152 -153 0
151 152 153 0
-154 -155 0
-154 -156 0
-155 -156 0
154 155 156 0
-157 -158 0
-157 -159 0
-158 -159 0
157 158 159 0
-160 -161 0
-160 -162 0
-161 -162 0
160 161 162 0
-163 -164 0
-163 -165 0
-164 -165 0
163 164 165 0
-166 -167 0
-166 -168 0
-167 -168 0
166 167 168 0
-169 -170 0
-169 -171 0
-170 -171 0
169 170 171 0
-172 -173 0
-172 -174 0
-173 -174 0
172 173 174 0
-175 -176 0
-175 -177 0
-176 -177 0
175 176 177 0
-178 -179 0
-178 -180 0
-179 -180 0
178 179 180 0
-181 -182 0
-181 -183 0
-182 -183 0
181 182 183 0
-184 -185 0
-184 -186 0
-185 -186 0
184 185 186 0
-187 -188 0
-187 -189 0
-188 -189 0
187 188 189 0
-190 -191 0
-190 -192 0
-191 -192 0
190 191 192 0
-193 -194 0
-193 -195 0
-194 -195 0
193 194 195 0
-196 -197 0
-196 -198 0
-197 -198 0
196 197 198 0
-199 -200 0
-199 -201 0
-200 -201 0
199 200 201 0
-202 -203 0
-202 -204 0
-203 -204 0
202 203 204 0
-205 -206 0
-205 -207 0
-206 -207 0
205 206 207 0
-208 -209 0
-208 -210 0
-209 -210 0
208 209 210 0
-211 -212 0
-211 -213 0
-212 -213 0
211 212 213 0
-214 -215 0
-214 -216 0
-215 -216 0
214 215 216 0
-217 -218 0
-217 -219 0
-218 -219 0
217 218 219 0
-220 -221 0
-220 -222 0
-221 -222 0
220 221 222 0
-223 -224 0
-223 -225 0
-224 -225 0
223 224 225 0
-226 -227 0
-226 -228 0
-227 -228 0
226 227 228 0
-229 -230 0
-229 -231 0
-230 -231 0
229 230 231 0
-232 -233 0
-232 -234 0
-233 -234 0
232 233 234 0
-235 -236 0
-235 -237 0
-236 -237 0
235 236 237 0
-238 -239 0
-238 -240 0
-239 -240 0
238 239 240 0
-241 -242 0
-241 -243 0
-242 -243 0
241 242 243 0
-244 -245 0
-244 -246 0
-245 -246 0
244 245 246 0
-247 -248 0
-247 -249 0
-248 -249 0
247 248 249 0
-250 -251 0
-250 -252 0
-251 -252 0
250 251 252 0
-253 -254 0
-253 -255 0
-254 -255 0
253 254 255 0
-256 -257 0
-256 -258 0
-257 -258 0
256 257 258 0
-259 -260 0
-259 -261 0
-260 -261 0
259 260 261 0
-262 -263 0
-262 -264 0
-263 -264 0
262 263 264 0
-265 -266 0
-265 -267 0
-266 -267 0
265 266 267 0
-268 -269 0
-268 -270 0
-269 -270 0
268 269 270 0
-271 -272 0
-271 -273 0
-272 -273 0
271 272 273 0
-274 -275 0
-274 -276 0
-275 -276 0
274 275 276 0
-277 -278 0
-277 -279 0
-278 -279 0
277 278 279 0
-280 -281 0
-280 -282 0
-281 -282 0
280 281 282 0
-283 -284 0
-283 -285 0
-284 -285 0
283 284 285 0
-286 -287 0
-286 -288 0
-287 -288 0
286 287 288 0
-289 -290 0
-289 -291 0
-290 -291 0
289 290 291 0
-292 -293 0
-292 -294 0
-293 -294 0
292 293 294 0
-295 -296 0
-295 -297 0
-296 -297 0
295 296 297 0
-298 -299 0
-298 -300 0
-299 -300 0
298 299 300 0
-106 -1 0
-107 -2 0
-108 -3 0
-130 -1 0
-131 -2 0
-132 -3 0
-139 -1 0
-140 -2 0
-141 -3 0
-253 -1 0
-254 -2 0
-255 -3 0
-148 -4 0
-149 -5 0
-150 -6 0
-151 -4 0
-152 -5 0
-153 -6 0
-190 -4 0
-191 -5 0
-192 -6 0
-229 -4 0
-230 -5 0
-231 -6 0
-247 -4 0
-248 -5 0
-249 -6 0
-184 -7 0
-185 -8 0
-186 -9 0
-190 -7 0
-191 -8 0
-192 -9 0
-283 -7 0
-284 -8 0
-285 -9 0
-292 -7 0
-293 -8 0
-294 -9 0
-133 -10 0
-134 -11 0
-135 -12 0
-142 -10 0
-143 -11 0
-144 -12 0
-154 -10 0
-155 -11 0
-156 -12 0
-196 -10 0
-197 -11 0
-198 -12 0
-295 -10 0
-296 -11 0
-297 -12 0
-130 -13 0
-131 -14 0
-132 -15 0
-154 -13 0
-155 -14 0
-156 -15 0
-166 -13 0
-167 -14 0
-168 -15 0
-193 -13 0
-194 -14 0
-195 -15 0
-262 -13 0
-263 -14 0
-264 -15 0
-280 -13 0
-281 -14 0
-282 -15 0
-115 -16 0
-116 -17 0
-117 -18 0
-130 -16 0
-131 -17 0
-132 -18 0
-142 -16 0
-143 -17 0
-144 -18 0
-178 -16 0
-179 -17 0
-180 -18 0
-250 -16 0
-251 -17 0
-252 -18 0
-271 -16 0
-272 -17 0
-273 -18 0
-112 -19 0
-113 -20 0
-114 -21 0
-121 -19 0
-122 -20 0
-123 -21 0
-148 -19 0
-149 -20 0
-150 -21 0
-157 -19 0
-158 -20 0
-159 -21 0
-208 -19 0
-209 -20 0
-210 -21 0
-220 -19 0
-221 -20 0
-222 -21 0
-280 -19 0
-281 -20 0
-282 -21 0
-295 -19 0
-296 -20 0
-297 -21 0
-205 -22 0
-206 -23 0
-207 -24 0
-250 -22 0
-251 -23 0
-252 -24 0
-271 -22 0
-272 -23 0
-273 -24 0
-139 -25 0
-140 -26 0
-141 -27 0
-250 -25 0
-251 -26 0
-252 -27 0
-274 -25 0
-275 -26 0
-276 -27 0
-289 -25 0
-290 -26 0
-291 -27 0
-103 -28 0
-104 -29 0
-105 -30 0
-196 -28 0
-197 -29 0
-198 -30 0
-232 -28 0
-233 -29 0
-234 -30 0
-256 -28 0
-257 -29 0
-258 -30 0
-262 -28 0
-263 -29 0
-264 -30 0
-106 -31 0
-107 -32 0
-108 -33 0
-292 -31 0
-293 -32 0
-294 -33 0
-124 -34 0
-125 -35 0
-126 -36 0
-163 -34 0
-164 -35 0
-165 -36 0
-181 -34 0
-182 -35 0
-183 -36 0
-205 -34 0
-206 -35 0
-207 -36 0
-244 -34 0
-245 -35 0
-246 -36 0
-271 -34 0
-272 -35 0
-273 -36 0
-286 -34 0
-287 -35 0
-288 -36 0
-124 -37 0
-125 -38 0
-126 -39 0
-181 -37 0
-182 -38 0
-183 -39 0
-229 -37 0
-230 -38 0
-231 -39 0
-271 -37 0
-272 -38 0
-273 -39 0
-142 -40 0
-143 -41 0
-144 -42 0
-154 -40 0
-155 -41 0
-156 -42 0
-163 -40 0
-164 -41 0
-165 -42 0
-241 -40 0
-242 -41 0
-243 -42 0
-280 -40 0
-281 -41 0
-282 -42 0
-289 -40 0
-290 -41 0
-291 -42 0
-295 -40 0
-296 -41 0
-297 -42 0
-109 -43 0
-110 -44 0
-111 -45 0
-112 -43 0
-113 -44 0
-114 -45 0
-127 -43 0
-128 -44 0
-129 -45 0
-214 -43 0
-215 -44 0
-216 -45 0
-259 -43 0
-260 -44 0
-261 -45 0
-289 -43 0
-290 -44 0
-291 -45 0
-178 -46 0
-179 -47 0
-180 -48 0
-184 -46 0
-185 -47 0
-186 -48 0
-244 -46 0
-245 -47 0
-246 -48 0
-286 -46 0
-287 -47 0
-288 -48 0
-115 -49 0
-116 -50 0
-117 -51 0
-193 -49 0
-194 -50 0
-195 -51 0
-202 -49 0
-203 -50 0
-204 -51 0
-247 -49 0
-248 -50 0
-249 -51 0
-121 -52 0
-122 -53 0
-123 -54 0
-124 -52 0
-125 -53 0
-126 -54 0
-202 -52 0
-203 -53 0
-204 -54 0
-274 -52 0
-275 -53 0
-276 -54 0
-124 -55 0
-125 -56 0
-126 -57 0
-217 -55 0
-218 -56 0
-219 -57 0
-262 -55 0
-263 -56 0
-264 -57 0
-283 -55 0
-284 -56 0
-285 -57 0
-292 -55 0
-293 -56 0
-294 -57 0
-157 -58 0
-158 -59 0
-159 -60 0
-166 -58 0
-167 -59 0
-168 -60 0
-169 -58 0
-170 -59 0
-171 -60 0
-190 -58 0
-191 -59 0
-192 -60 0
-241 -58 0
-242 -59 0
-243 -60 0
-103 -61 0
-104 -62 0
-105 -63 0
-112 -61 0
-113 -62 0
-114 -63 0
-181 -61 0
-182 -62 0
-183 -63 0
-196 -61 0
-197 -62 0
-198 -63 0
-274 -61 0
-275 -62 0
-276 -63 0
-292 -61 0
-293 -62 0
-294 -63 0
-112 -64 0
-113 -65 0
-114 -66 0
-226 -64 0
-227 -65 0
-228 -66 0
-259 -64 0
-260 -65 0
-261 -66 0
-265 -64 0
-266 -65 0
-267 -66 0
-226 -67 0
-227 -68 0
-228 -69 0
-139 -70 0
-140 -71 0
-141 -72 0
-169 -70 0
-170 -71 0
-171 -72 0
-205 -70 0
-206 -71 0
-207 -72 0
-232 -70 0
-233 -71 0
-234 -72 0
-145 -73 0
-146 -74 0
-147 -75 0
-256 -73 0
-257 -74 0
-258 -75 0
-286 -73 0
-287 -74 0
-288 -75 0
-151 -76 0
-152 -77 0
-153 -78 0
-178 -76 0
-179 -77 0
-180 -78 0
-211 -76 0
-212 -77 0
-213 -78 0
-217 -76 0
-218 -77 0
-219 -78 0
-253 -76 0
-254 -77 0
-255 -78 0
-106 -79 0
-107 -80 0
-108 -81 0
-163 -79 0
-164 -80 0
-165 -81 0
-172 -79 0
-173 -80 0
-174 -81 0
-109 -82 0
-110 -83 0
-111 -84 0
-157 -82 0
-158 -83 0
-159 -84 0
-178 -82 0
-179 -83 0
-180 -84 0
-193 -82 0
-194 -83 0
-195 -84 0
-247 -82 0
-248 -83 0
-249 -84 0
-268 -82 0
-269 -83 0
-270 -84 0
-115 -85 0
-116 -86 0
-117 -87 0
-133 -85 0
-134 -86 0
-135 -87 0
-223 -85 0
-224 -86 0
-225 -87 0
-235 -85 0
-236 -86 0
-237 -87 0
-295 -85 0
-296 -86 0
-297 -87 0
-106 -88 0
-107 -89 0
-108 -90 0
-130 -88 0
-131 -89 0
-132 -90 0
-181 -88 0
-182 -89 0
-183 -90 0
-184 -88 0
-185 -89 0
-186 -90 0
-235 -88 0
-236 -89 0
-237 -90 0
-298 -88 0
-299 -89 0
-300 -90 0
-142 -91 0
-143 -92 0
-144 -93 0
-151 -91 0
-152 -92 0
-153 -93 0
-187 -91 0
-188 -92 0
-189 -93 0
-196 -91 0
-197 -92 0
-198 -93 0
-232 -91 0
-233 -92 0
-234 -93 0
-235 -91 0
-236 -92 0
-237 -93 0
-256 -91 0
-257 -92 0
-258 -93 0
-148 -94 0
-149 -95 0
-150 -96 0
-229 -94 0
-230 -95 0
-231 -96 0
-256 -94 0
-257 -95 0
-258 -96 0
-283 -94 0
-284 -95 0
-285 -96 0
-109 -97 0
-110 -98 0
-111 -99 0
-148 -97 0
-149 -98 0
-150 -99 0
-217 -97 0
-218 -98 0
-219 -99 0
-253 -97 0
-254 -98 0
-255 -99 0
-157 -100 0
-158 -101 0
-159 -102 0
-217 -100 0
-218 -101 0
-219 -102 0
-280 -100 0
-281 -101 0
-282 -102 0
-283 -100 0
-284 -101 0
-285 -102 0
-286 -100 0
-287 -101 0
-288 -102 0
-241 -103 0
-242 -104 0
-243 -105 0
-280 -103 0
-281 -104 0
-282 -105 0
-289 -103 0
-290 -104 0
-291 -105 0
-295 -103 0
-296 -104 0
-297 -105 0
-202 -106 0
-203 -107 0
-204 -108 0
-223 -106 0
-224 -107 0
-225 -108 0
-268 -106 0
-269 -107 0
-270 -108 0
-214 -109 0
-215 -110 0
-216 -111 0
-298 -109 0
-299 -110 0
-300 -111 0
-274 -112 0
-275 -113 0
-276 -114 0
-232 -115 0
-233 -116 0
-234 -117 0
-280 -115 0
-281 -116 0
-282 -117 0
-265 -118 0
-266 -119 0
-267 -120 0
-283 -118 0
-284 -119 0
-285 -120 0
-226 -121 0
-227 -122 0
-228 -123 0
-214 -124 0
-215 -125 0
-216 -126 0
-244 -124 0
-245 -125 0
-246 -126 0
-265 -124 0
-266 -125 0
-267 -126 0
-277 -124 0
-278 -125 0
-279 -126 0
-217 -127 0
-218 -128 0
-219 -129 0
-235 -127 0
-236 -128 0
-237 -129 0
-247 -127 0
-248 -128 0
-249 -129 0
-283 -127 0
-284 -128 0
-285 -129 0
-205 -130 0
-206 -131 0
-207 -132 0
-232 -130 0
-233 -131 0
-234 -132 0
-256 -130 0
-257 -131 0
-258 -132 0
-259 -130 0
-260 -131 0
-261 -132 0
-226 -136 0
-227 -137 0
-228 -138 0
-271 -136 0
-272 -137 0
-273 -138 0
-202 -139 0
-203 -140 0
-204 -141 0
-220 -139 0
-221 -140 0
-222 -141 0
-229 -139 0
-230 -140 0
-231 -141 0
-250 -139 0
-251 -140 0
-252 -141 0
-226 -145 0
-227 -146 0
-228 -147 0
-262 -145 0
-263 -146 0
-264 -147 0
-217 -148 0
-218 -149 0
-219 -150 0
-238 -148 0
-239 -149 0
-240 -150 0
-253 -148 0
-254 -149 0
-255 -150 0
-292 -148 0
-293 -149 0
-294 -150 0
-232 -151 0
-233 -152 0
-234 -153 0
-238 -151 0
-239 -152 0
-240 -153 0
-208 -154 0
-209 -155 0
-210 -156 0
-256 -154 0
-257 -155 0
-258 -156 0
-232 -157 0
-233 -158 0
-234 -159 0
-217 -160 0
-218 -161 0
-219 -162 0
-226 -160 0
-227 -161 0
-228 -162 0
-277 -160 0
-278 -161 0
-279 -162 0
-205 -163 0
-206 -164 0
-207 -165 0
-208 -163 0
-209 -164 0
-210 -165 0
-283 -163 0
-284 -164 0
-285 -165 0
-286 -163 0
-287 -164 0
-288 -165 0
-298 -166 0
-299 -167 0
-300 -168 0
-211 -169 0
-212 -170 0
-213 -171 0
-238 -169 0
-239 -170 0
-240 -171 0
-241 -169 0
-242 -170 0
-243 -171 0
-208 -172 0
-209 -173 0
-210 -174 0
-208 -175 0
-209 -176 0
-210 -177 0
-292 -175 0
-293 -176 0
-294 -177 0
-298 -175 0
-299 -176 0
-300 -177 0
-268 -178 0
-269 -179 0
-270 -180 0
-292 -178 0
-293 -179 0
-294 -180 0
-253 -181 0
-254 -182 0
-255 -183 0
-289 -181 0
-290 -182 0
-291 -183 0
-229 -184 0
-230 -185 0
-231 -186 0
-274 -184 0
-275 -185 0
-276 -186 0
-241 -187 0
-242 -188 0
-243 -189 0
-250 -187 0
-251 -188 0
-252 -189 0
-262 -187 0
-263 -188 0
-264 -189 0
-271 -187 0
-272 -188 0
-273 -189 0
-205 -190 0
-206 -191 0
-207 -192 0
-211 -190 0
-212 -191 0
-213 -192 0
-217 -193 0
-218 -194 0
-219 -195 0
-262 -193 0
-263 -194 0
-264 -195 0
-235 -196 0
-236 -197 0
-237 -198 0
-253 -196 0
-254 -197 0
-255 -198 0
-274 -196 0
-275 -197 0
-276 -198 0
-247 -199 0
-248 -200 0
-249 -201 0
-262 -199 0
-263 -200 0
-264 -201 0
